wwwroot/Scripts/LPFiles/schedule_pares.lp
Minimize
 obj: z_1 + z_2 + z_3 + z_4 + z_5 + z_6 + z_7 + z_8 + z_9 + z_10 + z_11 + z_12 + z_13 + z_14 + z_15 + z_16 + z_17 + z_18

Subject To
cont_x18_1_1_x18_1_2: x18_1_1 - x18_1_2 = 0
turma_18_agendada: x18_1_1 + x18_1_2 = 2
sala_1_uso_para_turma_18: x18_1_1 + x18_1_2 - 2 z_1 <= 0
cont_x19_1_3_x19_1_4: x19_1_3 - x19_1_4 = 0
turma_19_agendada: x19_1_3 + x19_1_4 = 2
sala_1_uso_para_turma_19: x19_1_3 + x19_1_4 - 2 z_1 <= 0
cont_x20_1_5_x20_1_6: x20_1_5 - x20_1_6 = 0
turma_20_agendada: x20_1_5 + x20_1_6 = 2
sala_1_uso_para_turma_20: x20_1_5 + x20_1_6 - 2 z_1 <= 0
cont_x21_1_7_x21_1_8: x21_1_7 - x21_1_8 = 0
turma_21_agendada: x21_1_7 + x21_1_8 = 2
sala_1_uso_para_turma_21: x21_1_7 + x21_1_8 - 2 z_1 <= 0
cont_x22_1_9_x22_1_10: x22_1_9 - x22_1_10 = 0
turma_22_agendada: x22_1_9 + x22_1_10 = 2
sala_1_uso_para_turma_22: x22_1_9 + x22_1_10 - 2 z_1 <= 0
cont_x23_1_16_x23_1_17: x23_1_16 - x23_1_17 = 0
turma_23_agendada: x23_1_16 + x23_1_17 = 2
sala_1_uso_para_turma_23: x23_1_16 + x23_1_17 - 2 z_1 <= 0
cont_x24_1_18_x24_1_19: x24_1_18 - x24_1_19 = 0
turma_24_agendada: x24_1_18 + x24_1_19 = 2
sala_1_uso_para_turma_24: x24_1_18 + x24_1_19 - 2 z_1 <= 0
cont_x25_1_20_x25_1_21: x25_1_20 - x25_1_21 = 0
turma_25_agendada: x25_1_20 + x25_1_21 = 2
sala_1_uso_para_turma_25: x25_1_20 + x25_1_21 - 2 z_1 <= 0
cont_x26_13_1_x26_13_2: x26_13_1 - x26_13_2 = 0
turma_26_agendada: x26_13_1 + x26_13_2 = 2
sala_13_uso_para_turma_26: x26_13_1 + x26_13_2 - 2 z_13 <= 0
cont_x27_13_3_x27_13_4: x27_13_3 - x27_13_4 = 0
cont_x27_13_3_x27_13_5: x27_13_3 - x27_13_5 = 0
turma_27_agendada: x27_13_3 + x27_13_4 + x27_13_5 = 3
sala_13_uso_para_turma_27: x27_13_3 + x27_13_4 + x27_13_5 - 3 z_13 <= 0
cont_x28_13_6_x28_13_7: x28_13_6 - x28_13_7 = 0
turma_28_agendada: x28_13_6 + x28_13_7 = 2
sala_13_uso_para_turma_28: x28_13_6 + x28_13_7 - 2 z_13 <= 0
cont_x29_13_8_x29_13_9: x29_13_8 - x29_13_9 = 0
cont_x29_13_8_x29_13_10: x29_13_8 - x29_13_10 = 0
turma_29_agendada: x29_13_8 + x29_13_9 + x29_13_10 = 3
sala_13_uso_para_turma_29: x29_13_8 + x29_13_9 + x29_13_10 - 3 z_13 <= 0
cont_x30_1_22_x30_1_23: x30_1_22 - x30_1_23 = 0
turma_30_agendada: x30_1_22 + x30_1_23 = 2
sala_1_uso_para_turma_30: x30_1_22 + x30_1_23 - 2 z_1 <= 0
cont_x31_1_24_x31_1_25: x31_1_24 - x31_1_25 = 0
turma_31_agendada: x31_1_24 + x31_1_25 = 2
sala_1_uso_para_turma_31: x31_1_24 + x31_1_25 - 2 z_1 <= 0
cont_x32_1_31_x32_1_32: x32_1_31 - x32_1_32 = 0
cont_x32_1_31_x32_1_33: x32_1_31 - x32_1_33 = 0
turma_32_agendada: x32_1_31 + x32_1_32 + x32_1_33 = 3
sala_1_uso_para_turma_32: x32_1_31 + x32_1_32 + x32_1_33 - 3 z_1 <= 0
cont_x33_1_34_x33_1_35: x33_1_34 - x33_1_35 = 0
cont_x33_1_34_x33_1_36: x33_1_34 - x33_1_36 = 0
turma_33_agendada: x33_1_34 + x33_1_35 + x33_1_36 = 3
sala_1_uso_para_turma_33: x33_1_34 + x33_1_35 + x33_1_36 - 3 z_1 <= 0
cont_x34_1_37_x34_1_38: x34_1_37 - x34_1_38 = 0
cont_x34_1_37_x34_1_39: x34_1_37 - x34_1_39 = 0
turma_34_agendada: x34_1_37 + x34_1_38 + x34_1_39 = 3
sala_1_uso_para_turma_34: x34_1_37 + x34_1_38 + x34_1_39 - 3 z_1 <= 0
cont_x35_1_46_x35_1_47: x35_1_46 - x35_1_47 = 0
cont_x35_1_46_x35_1_48: x35_1_46 - x35_1_48 = 0
turma_35_agendada: x35_1_46 + x35_1_47 + x35_1_48 = 3
sala_1_uso_para_turma_35: x35_1_46 + x35_1_47 + x35_1_48 - 3 z_1 <= 0
turma_36_agendada: x36_1_40 = 1
sala_1_uso_para_turma_36: x36_1_40 - 1 z_1 <= 0
cont_x37_1_49_x37_1_50: x37_1_49 - x37_1_50 = 0
cont_x37_1_49_x37_1_51: x37_1_49 - x37_1_51 = 0
turma_37_agendada: x37_1_49 + x37_1_50 + x37_1_51 = 3
sala_1_uso_para_turma_37: x37_1_49 + x37_1_50 + x37_1_51 - 3 z_1 <= 0
cont_x38_1_52_x38_1_53: x38_1_52 - x38_1_53 = 0
cont_x38_1_52_x38_1_54: x38_1_52 - x38_1_54 = 0
turma_38_agendada: x38_1_52 + x38_1_53 + x38_1_54 = 3
sala_1_uso_para_turma_38: x38_1_52 + x38_1_53 + x38_1_54 - 3 z_1 <= 0
turma_55_agendada: x55_1_55 = 1
sala_1_uso_para_turma_55: x55_1_55 - 1 z_1 <= 0
cont_x56_1_61_x56_1_62: x56_1_61 - x56_1_62 = 0
cont_x56_1_61_x56_1_63: x56_1_61 - x56_1_63 = 0
turma_56_agendada: x56_1_61 + x56_1_62 + x56_1_63 = 3
sala_1_uso_para_turma_56: x56_1_61 + x56_1_62 + x56_1_63 - 3 z_1 <= 0
cont_x57_1_64_x57_1_65: x57_1_64 - x57_1_65 = 0
cont_x57_1_64_x57_1_66: x57_1_64 - x57_1_66 = 0
turma_57_agendada: x57_1_64 + x57_1_65 + x57_1_66 = 3
sala_1_uso_para_turma_57: x57_1_64 + x57_1_65 + x57_1_66 - 3 z_1 <= 0
cont_x58_1_67_x58_1_68: x58_1_67 - x58_1_68 = 0
cont_x58_1_67_x58_1_69: x58_1_67 - x58_1_69 = 0
turma_58_agendada: x58_1_67 + x58_1_68 + x58_1_69 = 3
sala_1_uso_para_turma_58: x58_1_67 + x58_1_68 + x58_1_69 - 3 z_1 <= 0
turma_62_agendada: x62_1_70 = 1
sala_1_uso_para_turma_62: x62_1_70 - 1 z_1 <= 0
cont_x63_2_1_x63_2_2: x63_2_1 - x63_2_2 = 0
cont_x63_2_1_x63_2_3: x63_2_1 - x63_2_3 = 0
turma_63_agendada: x63_2_1 + x63_2_2 + x63_2_3 = 3
sala_2_uso_para_turma_63: x63_2_1 + x63_2_2 + x63_2_3 - 3 z_2 <= 0
cont_x64_2_4_x64_2_5: x64_2_4 - x64_2_5 = 0
cont_x64_2_4_x64_2_6: x64_2_4 - x64_2_6 = 0
turma_64_agendada: x64_2_4 + x64_2_5 + x64_2_6 = 3
sala_2_uso_para_turma_64: x64_2_4 + x64_2_5 + x64_2_6 - 3 z_2 <= 0
turma_65_agendada: x65_13_16 = 1
sala_13_uso_para_turma_65: x65_13_16 - 1 z_13 <= 0
cont_x66_13_17_x66_13_18: x66_13_17 - x66_13_18 = 0
cont_x66_13_17_x66_13_19: x66_13_17 - x66_13_19 = 0
turma_66_agendada: x66_13_17 + x66_13_18 + x66_13_19 = 3
sala_13_uso_para_turma_66: x66_13_17 + x66_13_18 + x66_13_19 - 3 z_13 <= 0
turma_67_agendada: x67_13_20 = 1
sala_13_uso_para_turma_67: x67_13_20 - 1 z_13 <= 0
cont_x68_13_21_x68_13_22: x68_13_21 - x68_13_22 = 0
cont_x68_13_21_x68_13_23: x68_13_21 - x68_13_23 = 0
turma_68_agendada: x68_13_21 + x68_13_22 + x68_13_23 = 3
sala_13_uso_para_turma_68: x68_13_21 + x68_13_22 + x68_13_23 - 3 z_13 <= 0
cont_x69_13_31_x69_13_32: x69_13_31 - x69_13_32 = 0
cont_x69_13_31_x69_13_33: x69_13_31 - x69_13_33 = 0
turma_69_agendada: x69_13_31 + x69_13_32 + x69_13_33 = 3
sala_13_uso_para_turma_69: x69_13_31 + x69_13_32 + x69_13_33 - 3 z_13 <= 0
cont_x86_13_34_x86_13_35: x86_13_34 - x86_13_35 = 0
cont_x86_13_34_x86_13_36: x86_13_34 - x86_13_36 = 0
turma_86_agendada: x86_13_34 + x86_13_35 + x86_13_36 = 3
sala_13_uso_para_turma_86: x86_13_34 + x86_13_35 + x86_13_36 - 3 z_13 <= 0
cont_x87_13_37_x87_13_38: x87_13_37 - x87_13_38 = 0
cont_x87_13_37_x87_13_39: x87_13_37 - x87_13_39 = 0
turma_87_agendada: x87_13_37 + x87_13_38 + x87_13_39 = 3
sala_13_uso_para_turma_87: x87_13_37 + x87_13_38 + x87_13_39 - 3 z_13 <= 0
cont_x88_13_46_x88_13_47: x88_13_46 - x88_13_47 = 0
cont_x88_13_46_x88_13_48: x88_13_46 - x88_13_48 = 0
turma_88_agendada: x88_13_46 + x88_13_47 + x88_13_48 = 3
sala_13_uso_para_turma_88: x88_13_46 + x88_13_47 + x88_13_48 - 3 z_13 <= 0
cont_x89_13_49_x89_13_50: x89_13_49 - x89_13_50 = 0
cont_x89_13_49_x89_13_51: x89_13_49 - x89_13_51 = 0
turma_89_agendada: x89_13_49 + x89_13_50 + x89_13_51 = 3
sala_13_uso_para_turma_89: x89_13_49 + x89_13_50 + x89_13_51 - 3 z_13 <= 0
cont_x90_2_7_x90_2_8: x90_2_7 - x90_2_8 = 0
turma_90_agendada: x90_2_7 + x90_2_8 = 2
sala_2_uso_para_turma_90: x90_2_7 + x90_2_8 - 2 z_2 <= 0
cont_x91_2_9_x91_2_10: x91_2_9 - x91_2_10 = 0
turma_91_agendada: x91_2_9 + x91_2_10 = 2
sala_2_uso_para_turma_91: x91_2_9 + x91_2_10 - 2 z_2 <= 0
cont_x92_2_16_x92_2_17: x92_2_16 - x92_2_17 = 0
turma_92_agendada: x92_2_16 + x92_2_17 = 2
sala_2_uso_para_turma_92: x92_2_16 + x92_2_17 - 2 z_2 <= 0
cont_x93_2_18_x93_2_19: x93_2_18 - x93_2_19 = 0
turma_93_agendada: x93_2_18 + x93_2_19 = 2
sala_2_uso_para_turma_93: x93_2_18 + x93_2_19 - 2 z_2 <= 0
cont_x94_18_1_x94_18_2: x94_18_1 - x94_18_2 = 0
turma_94_agendada: x94_18_1 + x94_18_2 = 2
sala_18_uso_para_turma_94: x94_18_1 + x94_18_2 - 2 z_18 <= 0
cont_x95_18_3_x95_18_4: x95_18_3 - x95_18_4 = 0
cont_x95_18_3_x95_18_5: x95_18_3 - x95_18_5 = 0
cont_x95_18_3_x95_18_6: x95_18_3 - x95_18_6 = 0
turma_95_agendada: x95_18_3 + x95_18_4 + x95_18_5 + x95_18_6 = 4
sala_18_uso_para_turma_95: x95_18_3 + x95_18_4 + x95_18_5 + x95_18_6 - 4 z_18 <= 0
ordem_uc_6_turma_18_19: end_18 - start_19 <= -1
ordem_uc_6_turma_18_21: end_18 - start_21 <= -1
ordem_uc_6_turma_20_19: end_20 - start_19 <= -1
ordem_uc_6_turma_20_21: end_20 - start_21 <= -1
ordem_uc_7_turma_22_23: end_22 - start_23 <= -1
ordem_uc_7_turma_22_25: end_22 - start_25 <= -1
ordem_uc_7_turma_24_23: end_24 - start_23 <= -1
ordem_uc_7_turma_24_25: end_24 - start_25 <= -1
ordem_uc_8_turma_26_27: end_26 - start_27 <= -1
ordem_uc_8_turma_26_29: end_26 - start_29 <= -1
ordem_uc_8_turma_28_27: end_28 - start_27 <= -1
ordem_uc_8_turma_28_29: end_28 - start_29 <= -1
ordem_uc_9_turma_30_32: end_30 - start_32 <= -1
ordem_uc_9_turma_30_33: end_30 - start_33 <= -1
ordem_uc_9_turma_30_34: end_30 - start_34 <= -1
ordem_uc_9_turma_30_35: end_30 - start_35 <= -1
ordem_uc_9_turma_31_32: end_31 - start_32 <= -1
ordem_uc_9_turma_31_33: end_31 - start_33 <= -1
ordem_uc_9_turma_31_34: end_31 - start_34 <= -1
ordem_uc_9_turma_31_35: end_31 - start_35 <= -1
ordem_uc_10_turma_36_37: end_36 - start_37 <= -1
ordem_uc_10_turma_36_38: end_36 - start_38 <= -1
ordem_uc_16_turma_55_56: end_55 - start_56 <= -1
ordem_uc_16_turma_55_57: end_55 - start_57 <= -1
ordem_uc_16_turma_55_58: end_55 - start_58 <= -1
ordem_uc_18_turma_62_63: end_62 - start_63 <= -1
ordem_uc_18_turma_62_64: end_62 - start_64 <= -1
ordem_uc_19_turma_65_66: end_65 - start_66 <= -1
ordem_uc_20_turma_67_68: end_67 - start_68 <= -1
ordem_uc_20_turma_67_69: end_67 - start_69 <= -1
ordem_uc_27_turma_86_88: end_86 - start_88 <= -1
ordem_uc_27_turma_86_89: end_86 - start_89 <= -1
ordem_uc_27_turma_87_88: end_87 - start_88 <= -1
ordem_uc_27_turma_87_89: end_87 - start_89 <= -1
ordem_uc_30_turma_94_95: end_94 - start_95 <= -1

Binary
 x18_1_1
 x18_1_2
 x19_1_3
 x19_1_4
 x20_1_5
 x20_1_6
 x21_1_7
 x21_1_8
 x22_1_10
 x22_1_9
 x23_1_16
 x23_1_17
 x24_1_18
 x24_1_19
 x25_1_20
 x25_1_21
 x26_13_1
 x26_13_2
 x27_13_3
 x27_13_4
 x27_13_5
 x28_13_6
 x28_13_7
 x29_13_10
 x29_13_8
 x29_13_9
 x30_1_22
 x30_1_23
 x31_1_24
 x31_1_25
 x32_1_31
 x32_1_32
 x32_1_33
 x33_1_34
 x33_1_35
 x33_1_36
 x34_1_37
 x34_1_38
 x34_1_39
 x35_1_46
 x35_1_47
 x35_1_48
 x36_1_40
 x37_1_49
 x37_1_50
 x37_1_51
 x38_1_52
 x38_1_53
 x38_1_54
 x55_1_55
 x56_1_61
 x56_1_62
 x56_1_63
 x57_1_64
 x57_1_65
 x57_1_66
 x58_1_67
 x58_1_68
 x58_1_69
 x62_1_70
 x63_2_1
 x63_2_2
 x63_2_3
 x64_2_4
 x64_2_5
 x64_2_6
 x65_13_16
 x66_13_17
 x66_13_18
 x66_13_19
 x67_13_20
 x68_13_21
 x68_13_22
 x68_13_23
 x69_13_31
 x69_13_32
 x69_13_33
 x86_13_34
 x86_13_35
 x86_13_36
 x87_13_37
 x87_13_38
 x87_13_39
 x88_13_46
 x88_13_47
 x88_13_48
 x89_13_49
 x89_13_50
 x89_13_51
 x90_2_7
 x90_2_8
 x91_2_10
 x91_2_9
 x92_2_16
 x92_2_17
 x93_2_18
 x93_2_19
 x94_18_1
 x94_18_2
 x95_18_3
 x95_18_4
 x95_18_5
 x95_18_6
 z_1
 z_10
 z_11
 z_12
 z_13
 z_14
 z_15
 z_16
 z_17
 z_18
 z_2
 z_3
 z_4
 z_5
 z_6
 z_7
 z_8
 z_9
End
