wwwroot/Scripts/LPFiles/schedule_pares.sol
<?xml version = "1.0" encoding="UTF-8" standalone="yes"?>
<CPLEXSolution version="1.2">
 <header
   problemName="D:\CS\BACKUP\HorariosIPBejaMVC\wwwroot\Scripts\LPFiles\schedule_pares.lp"
   solutionName="p2"
   solutionIndex="0"
   objectiveValue="4"
   solutionTypeValue="3"
   solutionTypeString="primal"
   solutionStatusValue="127"
   solutionStatusString="integer feasible solution"
   solutionMethodString="mip"
   primalFeasible="0"
   dualFeasible="0"
   writeLevel="1"/>
 <quality
   epInt="1.0000000000000001e-05"
   epRHS="9.9999999999999995e-07"
   maxIntInfeas="0"
   maxPrimalInfeas="0"
   maxX="1"
   maxSlack="0"/>
 <linearConstraints>
  <constraint name="cont_x18_1_1_x18_1_2" index="0" slack="0"/>
  <constraint name="turma_18_agendada" index="1" slack="0"/>
  <constraint name="sala_1_uso_para_turma_18" index="2" slack="0"/>
  <constraint name="cont_x19_1_3_x19_1_4" index="3" slack="0"/>
  <constraint name="turma_19_agendada" index="4" slack="0"/>
  <constraint name="sala_1_uso_para_turma_19" index="5" slack="0"/>
  <constraint name="cont_x20_1_5_x20_1_6" index="6" slack="0"/>
  <constraint name="turma_20_agendada" index="7" slack="0"/>
  <constraint name="sala_1_uso_para_turma_20" index="8" slack="0"/>
  <constraint name="cont_x21_1_7_x21_1_8" index="9" slack="0"/>
  <constraint name="turma_21_agendada" index="10" slack="0"/>
  <constraint name="sala_1_uso_para_turma_21" index="11" slack="0"/>
  <constraint name="cont_x22_1_9_x22_1_10" index="12" slack="0"/>
  <constraint name="turma_22_agendada" index="13" slack="0"/>
  <constraint name="sala_1_uso_para_turma_22" index="14" slack="0"/>
  <constraint name="cont_x23_1_16_x23_1_17" index="15" slack="0"/>
  <constraint name="turma_23_agendada" index="16" slack="0"/>
  <constraint name="sala_1_uso_para_turma_23" index="17" slack="0"/>
  <constraint name="cont_x24_1_18_x24_1_19" index="18" slack="0"/>
  <constraint name="turma_24_agendada" index="19" slack="0"/>
  <constraint name="sala_1_uso_para_turma_24" index="20" slack="0"/>
  <constraint name="cont_x25_1_20_x25_1_21" index="21" slack="0"/>
  <constraint name="turma_25_agendada" index="22" slack="0"/>
  <constraint name="sala_1_uso_para_turma_25" index="23" slack="0"/>
  <constraint name="cont_x26_13_1_x26_13_2" index="24" slack="0"/>
  <constraint name="turma_26_agendada" index="25" slack="0"/>
  <constraint name="sala_13_uso_para_turma_26" index="26" slack="0"/>
  <constraint name="cont_x27_13_3_x27_13_4" index="27" slack="0"/>
  <constraint name="cont_x27_13_3_x27_13_5" index="28" slack="0"/>
  <constraint name="turma_27_agendada" index="29" slack="0"/>
  <constraint name="sala_13_uso_para_turma_27" index="30" slack="0"/>
  <constraint name="cont_x28_13_6_x28_13_7" index="31" slack="0"/>
  <constraint name="turma_28_agendada" index="32" slack="0"/>
  <constraint name="sala_13_uso_para_turma_28" index="33" slack="0"/>
  <constraint name="cont_x29_13_8_x29_13_9" index="34" slack="0"/>
  <constraint name="cont_x29_13_8_x29_13_10" index="35" slack="0"/>
  <constraint name="turma_29_agendada" index="36" slack="0"/>
  <constraint name="sala_13_uso_para_turma_29" index="37" slack="0"/>
  <constraint name="cont_x30_1_22_x30_1_23" index="38" slack="0"/>
  <constraint name="turma_30_agendada" index="39" slack="0"/>
  <constraint name="sala_1_uso_para_turma_30" index="40" slack="0"/>
  <constraint name="cont_x31_1_24_x31_1_25" index="41" slack="0"/>
  <constraint name="turma_31_agendada" index="42" slack="0"/>
  <constraint name="sala_1_uso_para_turma_31" index="43" slack="0"/>
  <constraint name="cont_x32_1_31_x32_1_32" index="44" slack="0"/>
  <constraint name="cont_x32_1_31_x32_1_33" index="45" slack="0"/>
  <constraint name="turma_32_agendada" index="46" slack="0"/>
  <constraint name="sala_1_uso_para_turma_32" index="47" slack="0"/>
  <constraint name="cont_x33_1_34_x33_1_35" index="48" slack="0"/>
  <constraint name="cont_x33_1_34_x33_1_36" index="49" slack="0"/>
  <constraint name="turma_33_agendada" index="50" slack="0"/>
  <constraint name="sala_1_uso_para_turma_33" index="51" slack="0"/>
  <constraint name="cont_x34_1_37_x34_1_38" index="52" slack="0"/>
  <constraint name="cont_x34_1_37_x34_1_39" index="53" slack="0"/>
  <constraint name="turma_34_agendada" index="54" slack="0"/>
  <constraint name="sala_1_uso_para_turma_34" index="55" slack="0"/>
  <constraint name="cont_x35_1_46_x35_1_47" index="56" slack="0"/>
  <constraint name="cont_x35_1_46_x35_1_48" index="57" slack="0"/>
  <constraint name="turma_35_agendada" index="58" slack="0"/>
  <constraint name="sala_1_uso_para_turma_35" index="59" slack="0"/>
  <constraint name="turma_36_agendada" index="60" slack="0"/>
  <constraint name="sala_1_uso_para_turma_36" index="61" slack="0"/>
  <constraint name="cont_x37_1_49_x37_1_50" index="62" slack="0"/>
  <constraint name="cont_x37_1_49_x37_1_51" index="63" slack="0"/>
  <constraint name="turma_37_agendada" index="64" slack="0"/>
  <constraint name="sala_1_uso_para_turma_37" index="65" slack="0"/>
  <constraint name="cont_x38_1_52_x38_1_53" index="66" slack="0"/>
  <constraint name="cont_x38_1_52_x38_1_54" index="67" slack="0"/>
  <constraint name="turma_38_agendada" index="68" slack="0"/>
  <constraint name="sala_1_uso_para_turma_38" index="69" slack="0"/>
  <constraint name="turma_55_agendada" index="70" slack="0"/>
  <constraint name="sala_1_uso_para_turma_55" index="71" slack="0"/>
  <constraint name="cont_x56_1_61_x56_1_62" index="72" slack="0"/>
  <constraint name="cont_x56_1_61_x56_1_63" index="73" slack="0"/>
  <constraint name="turma_56_agendada" index="74" slack="0"/>
  <constraint name="sala_1_uso_para_turma_56" index="75" slack="0"/>
  <constraint name="cont_x57_1_64_x57_1_65" index="76" slack="0"/>
  <constraint name="cont_x57_1_64_x57_1_66" index="77" slack="0"/>
  <constraint name="turma_57_agendada" index="78" slack="0"/>
  <constraint name="sala_1_uso_para_turma_57" index="79" slack="0"/>
  <constraint name="cont_x58_1_67_x58_1_68" index="80" slack="0"/>
  <constraint name="cont_x58_1_67_x58_1_69" index="81" slack="0"/>
  <constraint name="turma_58_agendada" index="82" slack="0"/>
  <constraint name="sala_1_uso_para_turma_58" index="83" slack="0"/>
  <constraint name="turma_62_agendada" index="84" slack="0"/>
  <constraint name="sala_1_uso_para_turma_62" index="85" slack="0"/>
  <constraint name="cont_x63_2_1_x63_2_2" index="86" slack="0"/>
  <constraint name="cont_x63_2_1_x63_2_3" index="87" slack="0"/>
  <constraint name="turma_63_agendada" index="88" slack="0"/>
  <constraint name="sala_2_uso_para_turma_63" index="89" slack="0"/>
  <constraint name="cont_x64_2_4_x64_2_5" index="90" slack="0"/>
  <constraint name="cont_x64_2_4_x64_2_6" index="91" slack="0"/>
  <constraint name="turma_64_agendada" index="92" slack="0"/>
  <constraint name="sala_2_uso_para_turma_64" index="93" slack="0"/>
  <constraint name="turma_65_agendada" index="94" slack="0"/>
  <constraint name="sala_13_uso_para_turma_65" index="95" slack="0"/>
  <constraint name="cont_x66_13_17_x66_13_18" index="96" slack="0"/>
  <constraint name="cont_x66_13_17_x66_13_19" index="97" slack="0"/>
  <constraint name="turma_66_agendada" index="98" slack="0"/>
  <constraint name="sala_13_uso_para_turma_66" index="99" slack="0"/>
  <constraint name="turma_67_agendada" index="100" slack="0"/>
  <constraint name="sala_13_uso_para_turma_67" index="101" slack="0"/>
  <constraint name="cont_x68_13_21_x68_13_22" index="102" slack="0"/>
  <constraint name="cont_x68_13_21_x68_13_23" index="103" slack="0"/>
  <constraint name="turma_68_agendada" index="104" slack="0"/>
  <constraint name="sala_13_uso_para_turma_68" index="105" slack="0"/>
  <constraint name="cont_x69_13_31_x69_13_32" index="106" slack="0"/>
  <constraint name="cont_x69_13_31_x69_13_33" index="107" slack="0"/>
  <constraint name="turma_69_agendada" index="108" slack="0"/>
  <constraint name="sala_13_uso_para_turma_69" index="109" slack="0"/>
  <constraint name="cont_x86_13_34_x86_13_35" index="110" slack="0"/>
  <constraint name="cont_x86_13_34_x86_13_36" index="111" slack="0"/>
  <constraint name="turma_86_agendada" index="112" slack="0"/>
  <constraint name="sala_13_uso_para_turma_86" index="113" slack="0"/>
  <constraint name="cont_x87_13_37_x87_13_38" index="114" slack="0"/>
  <constraint name="cont_x87_13_37_x87_13_39" index="115" slack="0"/>
  <constraint name="turma_87_agendada" index="116" slack="0"/>
  <constraint name="sala_13_uso_para_turma_87" index="117" slack="0"/>
  <constraint name="cont_x88_13_46_x88_13_47" index="118" slack="0"/>
  <constraint name="cont_x88_13_46_x88_13_48" index="119" slack="0"/>
  <constraint name="turma_88_agendada" index="120" slack="0"/>
  <constraint name="sala_13_uso_para_turma_88" index="121" slack="0"/>
  <constraint name="cont_x89_13_49_x89_13_50" index="122" slack="0"/>
  <constraint name="cont_x89_13_49_x89_13_51" index="123" slack="0"/>
  <constraint name="turma_89_agendada" index="124" slack="0"/>
  <constraint name="sala_13_uso_para_turma_89" index="125" slack="0"/>
  <constraint name="cont_x90_2_7_x90_2_8" index="126" slack="0"/>
  <constraint name="turma_90_agendada" index="127" slack="0"/>
  <constraint name="sala_2_uso_para_turma_90" index="128" slack="0"/>
  <constraint name="cont_x91_2_9_x91_2_10" index="129" slack="0"/>
  <constraint name="turma_91_agendada" index="130" slack="0"/>
  <constraint name="sala_2_uso_para_turma_91" index="131" slack="0"/>
  <constraint name="cont_x92_2_16_x92_2_17" index="132" slack="0"/>
  <constraint name="turma_92_agendada" index="133" slack="0"/>
  <constraint name="sala_2_uso_para_turma_92" index="134" slack="0"/>
  <constraint name="cont_x93_2_18_x93_2_19" index="135" slack="0"/>
  <constraint name="turma_93_agendada" index="136" slack="0"/>
  <constraint name="sala_2_uso_para_turma_93" index="137" slack="0"/>
  <constraint name="cont_x94_18_1_x94_18_2" index="138" slack="0"/>
  <constraint name="turma_94_agendada" index="139" slack="0"/>
  <constraint name="sala_18_uso_para_turma_94" index="140" slack="0"/>
  <constraint name="cont_x95_18_3_x95_18_4" index="141" slack="0"/>
  <constraint name="cont_x95_18_3_x95_18_5" index="142" slack="0"/>
  <constraint name="cont_x95_18_3_x95_18_6" index="143" slack="0"/>
  <constraint name="turma_95_agendada" index="144" slack="0"/>
  <constraint name="sala_18_uso_para_turma_95" index="145" slack="0"/>
  <constraint name="ordem_uc_6_turma_18_19" index="146" slack="0"/>
  <constraint name="ordem_uc_6_turma_18_21" index="147" slack="0"/>
  <constraint name="ordem_uc_6_turma_20_19" index="148" slack="0"/>
  <constraint name="ordem_uc_6_turma_20_21" index="149" slack="0"/>
  <constraint name="ordem_uc_7_turma_22_23" index="150" slack="0"/>
  <constraint name="ordem_uc_7_turma_22_25" index="151" slack="0"/>
  <constraint name="ordem_uc_7_turma_24_23" index="152" slack="0"/>
  <constraint name="ordem_uc_7_turma_24_25" index="153" slack="0"/>
  <constraint name="ordem_uc_8_turma_26_27" index="154" slack="0"/>
  <constraint name="ordem_uc_8_turma_26_29" index="155" slack="0"/>
  <constraint name="ordem_uc_8_turma_28_27" index="156" slack="0"/>
  <constraint name="ordem_uc_8_turma_28_29" index="157" slack="0"/>
  <constraint name="ordem_uc_9_turma_30_32" index="158" slack="0"/>
  <constraint name="ordem_uc_9_turma_30_33" index="159" slack="0"/>
  <constraint name="ordem_uc_9_turma_30_34" index="160" slack="0"/>
  <constraint name="ordem_uc_9_turma_30_35" index="161" slack="0"/>
  <constraint name="ordem_uc_9_turma_31_32" index="162" slack="0"/>
  <constraint name="ordem_uc_9_turma_31_33" index="163" slack="0"/>
  <constraint name="ordem_uc_9_turma_31_34" index="164" slack="0"/>
  <constraint name="ordem_uc_9_turma_31_35" index="165" slack="0"/>
  <constraint name="ordem_uc_10_turma_36_37" index="166" slack="0"/>
  <constraint name="ordem_uc_10_turma_36_38" index="167" slack="0"/>
  <constraint name="ordem_uc_16_turma_55_56" index="168" slack="0"/>
  <constraint name="ordem_uc_16_turma_55_57" index="169" slack="0"/>
  <constraint name="ordem_uc_16_turma_55_58" index="170" slack="0"/>
  <constraint name="ordem_uc_18_turma_62_63" index="171" slack="0"/>
  <constraint name="ordem_uc_18_turma_62_64" index="172" slack="0"/>
  <constraint name="ordem_uc_19_turma_65_66" index="173" slack="0"/>
  <constraint name="ordem_uc_20_turma_67_68" index="174" slack="0"/>
  <constraint name="ordem_uc_20_turma_67_69" index="175" slack="0"/>
  <constraint name="ordem_uc_27_turma_86_88" index="176" slack="0"/>
  <constraint name="ordem_uc_27_turma_86_89" index="177" slack="0"/>
  <constraint name="ordem_uc_27_turma_87_88" index="178" slack="0"/>
  <constraint name="ordem_uc_27_turma_87_89" index="179" slack="0"/>
  <constraint name="ordem_uc_30_turma_94_95" index="180" slack="0"/>
 </linearConstraints>
 <variables>
  <variable name="z_1" index="0" value="1"/>
  <variable name="z_2" index="1" value="1"/>
  <variable name="z_3" index="2" value="0"/>
  <variable name="z_4" index="3" value="0"/>
  <variable name="z_5" index="4" value="0"/>
  <variable name="z_6" index="5" value="0"/>
  <variable name="z_7" index="6" value="0"/>
  <variable name="z_8" index="7" value="0"/>
  <variable name="z_9" index="8" value="0"/>
  <variable name="z_10" index="9" value="0"/>
  <variable name="z_11" index="10" value="0"/>
  <variable name="z_12" index="11" value="0"/>
  <variable name="z_13" index="12" value="1"/>
  <variable name="z_14" index="13" value="0"/>
  <variable name="z_15" index="14" value="0"/>
  <variable name="z_16" index="15" value="0"/>
  <variable name="z_17" index="16" value="0"/>
  <variable name="z_18" index="17" value="1"/>
  <variable name="x18_1_1" index="18" value="1"/>
  <variable name="x18_1_2" index="19" value="1"/>
  <variable name="x19_1_3" index="20" value="1"/>
  <variable name="x19_1_4" index="21" value="1"/>
  <variable name="x20_1_5" index="22" value="1"/>
  <variable name="x20_1_6" index="23" value="1"/>
  <variable name="x21_1_7" index="24" value="1"/>
  <variable name="x21_1_8" index="25" value="1"/>
  <variable name="x22_1_9" index="26" value="1"/>
  <variable name="x22_1_10" index="27" value="1"/>
  <variable name="x23_1_16" index="28" value="1"/>
  <variable name="x23_1_17" index="29" value="1"/>
  <variable name="x24_1_18" index="30" value="1"/>
  <variable name="x24_1_19" index="31" value="1"/>
  <variable name="x25_1_20" index="32" value="1"/>
  <variable name="x25_1_21" index="33" value="1"/>
  <variable name="x26_13_1" index="34" value="1"/>
  <variable name="x26_13_2" index="35" value="1"/>
  <variable name="x27_13_3" index="36" value="1"/>
  <variable name="x27_13_4" index="37" value="1"/>
  <variable name="x27_13_5" index="38" value="1"/>
  <variable name="x28_13_6" index="39" value="1"/>
  <variable name="x28_13_7" index="40" value="1"/>
  <variable name="x29_13_8" index="41" value="1"/>
  <variable name="x29_13_9" index="42" value="1"/>
  <variable name="x29_13_10" index="43" value="1"/>
  <variable name="x30_1_22" index="44" value="1"/>
  <variable name="x30_1_23" index="45" value="1"/>
  <variable name="x31_1_24" index="46" value="1"/>
  <variable name="x31_1_25" index="47" value="1"/>
  <variable name="x32_1_31" index="48" value="1"/>
  <variable name="x32_1_32" index="49" value="1"/>
  <variable name="x32_1_33" index="50" value="1"/>
  <variable name="x33_1_34" index="51" value="1"/>
  <variable name="x33_1_35" index="52" value="1"/>
  <variable name="x33_1_36" index="53" value="1"/>
  <variable name="x34_1_37" index="54" value="1"/>
  <variable name="x34_1_38" index="55" value="1"/>
  <variable name="x34_1_39" index="56" value="1"/>
  <variable name="x35_1_46" index="57" value="1"/>
  <variable name="x35_1_47" index="58" value="1"/>
  <variable name="x35_1_48" index="59" value="1"/>
  <variable name="x36_1_40" index="60" value="1"/>
  <variable name="x37_1_49" index="61" value="1"/>
  <variable name="x37_1_50" index="62" value="1"/>
  <variable name="x37_1_51" index="63" value="1"/>
  <variable name="x38_1_52" index="64" value="1"/>
  <variable name="x38_1_53" index="65" value="1"/>
  <variable name="x38_1_54" index="66" value="1"/>
  <variable name="x55_1_55" index="67" value="1"/>
  <variable name="x56_1_61" index="68" value="1"/>
  <variable name="x56_1_62" index="69" value="1"/>
  <variable name="x56_1_63" index="70" value="1"/>
  <variable name="x57_1_64" index="71" value="1"/>
  <variable name="x57_1_65" index="72" value="1"/>
  <variable name="x57_1_66" index="73" value="1"/>
  <variable name="x58_1_67" index="74" value="1"/>
  <variable name="x58_1_68" index="75" value="1"/>
  <variable name="x58_1_69" index="76" value="1"/>
  <variable name="x62_1_70" index="77" value="1"/>
  <variable name="x63_2_1" index="78" value="1"/>
  <variable name="x63_2_2" index="79" value="1"/>
  <variable name="x63_2_3" index="80" value="1"/>
  <variable name="x64_2_4" index="81" value="1"/>
  <variable name="x64_2_5" index="82" value="1"/>
  <variable name="x64_2_6" index="83" value="1"/>
  <variable name="x65_13_16" index="84" value="1"/>
  <variable name="x66_13_17" index="85" value="1"/>
  <variable name="x66_13_18" index="86" value="1"/>
  <variable name="x66_13_19" index="87" value="1"/>
  <variable name="x67_13_20" index="88" value="1"/>
  <variable name="x68_13_21" index="89" value="1"/>
  <variable name="x68_13_22" index="90" value="1"/>
  <variable name="x68_13_23" index="91" value="1"/>
  <variable name="x69_13_31" index="92" value="1"/>
  <variable name="x69_13_32" index="93" value="1"/>
  <variable name="x69_13_33" index="94" value="1"/>
  <variable name="x86_13_34" index="95" value="1"/>
  <variable name="x86_13_35" index="96" value="1"/>
  <variable name="x86_13_36" index="97" value="1"/>
  <variable name="x87_13_37" index="98" value="1"/>
  <variable name="x87_13_38" index="99" value="1"/>
  <variable name="x87_13_39" index="100" value="1"/>
  <variable name="x88_13_46" index="101" value="1"/>
  <variable name="x88_13_47" index="102" value="1"/>
  <variable name="x88_13_48" index="103" value="1"/>
  <variable name="x89_13_49" index="104" value="1"/>
  <variable name="x89_13_50" index="105" value="1"/>
  <variable name="x89_13_51" index="106" value="1"/>
  <variable name="x90_2_7" index="107" value="1"/>
  <variable name="x90_2_8" index="108" value="1"/>
  <variable name="x91_2_9" index="109" value="1"/>
  <variable name="x91_2_10" index="110" value="1"/>
  <variable name="x92_2_16" index="111" value="1"/>
  <variable name="x92_2_17" index="112" value="1"/>
  <variable name="x93_2_18" index="113" value="1"/>
  <variable name="x93_2_19" index="114" value="1"/>
  <variable name="x94_18_1" index="115" value="1"/>
  <variable name="x94_18_2" index="116" value="1"/>
  <variable name="x95_18_3" index="117" value="1"/>
  <variable name="x95_18_4" index="118" value="1"/>
  <variable name="x95_18_5" index="119" value="1"/>
  <variable name="x95_18_6" index="120" value="1"/>
  <variable name="end_18" index="121" value="0"/>
  <variable name="start_19" index="122" value="1"/>
  <variable name="start_21" index="123" value="1"/>
  <variable name="end_20" index="124" value="0"/>
  <variable name="end_22" index="125" value="0"/>
  <variable name="start_23" index="126" value="1"/>
  <variable name="start_25" index="127" value="1"/>
  <variable name="end_24" index="128" value="0"/>
  <variable name="end_26" index="129" value="0"/>
  <variable name="start_27" index="130" value="1"/>
  <variable name="start_29" index="131" value="1"/>
  <variable name="end_28" index="132" value="0"/>
  <variable name="end_30" index="133" value="0"/>
  <variable name="start_32" index="134" value="1"/>
  <variable name="start_33" index="135" value="1"/>
  <variable name="start_34" index="136" value="1"/>
  <variable name="start_35" index="137" value="1"/>
  <variable name="end_31" index="138" value="0"/>
  <variable name="end_36" index="139" value="0"/>
  <variable name="start_37" index="140" value="1"/>
  <variable name="start_38" index="141" value="1"/>
  <variable name="end_55" index="142" value="0"/>
  <variable name="start_56" index="143" value="1"/>
  <variable name="start_57" index="144" value="1"/>
  <variable name="start_58" index="145" value="1"/>
  <variable name="end_62" index="146" value="0"/>
  <variable name="start_63" index="147" value="1"/>
  <variable name="start_64" index="148" value="1"/>
  <variable name="end_65" index="149" value="0"/>
  <variable name="start_66" index="150" value="1"/>
  <variable name="end_67" index="151" value="0"/>
  <variable name="start_68" index="152" value="1"/>
  <variable name="start_69" index="153" value="1"/>
  <variable name="end_86" index="154" value="0"/>
  <variable name="start_88" index="155" value="1"/>
  <variable name="start_89" index="156" value="1"/>
  <variable name="end_87" index="157" value="0"/>
  <variable name="end_94" index="158" value="0"/>
  <variable name="start_95" index="159" value="1"/>
 </variables>
 <objectiveValues>
  <objective index="0" name="obj" value="4"/>
 </objectiveValues>
</CPLEXSolution>
